% Auto-generated by scripts/generate_dzn.py
% problem_type   = regex
% instance       = regex_11
% source_json    = instances_json/2_high_blowup/regex_11.json
% blowup         = 56.2
% representation = DFA

mode = 0;

var_count = 15;
Q = 843;
S = 3;
q0 = 1;
F = {522, 523, 524, 525, 526, 527, 528, 529, 530, 531, 532, 533, 534, 535, 536, 537, 538, 539, 540, 541, 542, 543, 544, 545, 546, 547, 548, 549, 550, 551, 552, 553, 554, 555, 556, 557, 558, 559, 560, 561, 562, 563, 564, 565, 566, 567, 568, 569, 570, 571, 572, 573, 574, 575, 576, 577, 578, 579, 580, 581, 582, 583, 584, 585, 586, 587, 588, 589, 590, 591, 592, 593, 594, 595, 596, 597, 598, 599, 600, 601, 602, 603, 604, 605, 606, 607, 608, 609, 610, 611, 612, 613, 614, 615, 616, 617, 618, 619, 620, 621, 622, 623, 624, 625, 626, 627, 628, 629, 630, 631, 632, 633, 634, 635, 636, 637, 638, 639, 640, 641, 642, 643, 644, 645, 646, 647, 648, 649, 650, 651, 652, 653, 654, 655, 656, 657, 658, 659, 660, 661, 662, 663, 664, 665, 666, 667, 668, 669, 670, 671, 672, 673, 674, 675, 676, 677, 678, 679, 680, 681, 682, 683, 684, 685, 686, 687, 688, 689, 690, 691, 692, 693, 694, 695, 696, 697, 698, 699, 700, 701, 702, 703, 704, 705, 706, 707, 708, 709, 710, 711, 712, 713, 714, 715, 716, 717, 718, 719, 720, 721, 722, 723, 724, 725, 726, 727, 728, 729, 730, 731, 732, 733, 734, 735, 736, 737, 738, 739, 740, 741, 742, 743, 744, 745, 746, 747, 748, 749, 750, 751, 752, 753, 754, 755, 756, 757, 758, 759, 760, 761, 762, 763, 764, 765, 766, 767, 768, 769, 770, 771, 772, 773, 774, 775, 776, 777, 778, 779, 780, 781, 782, 783, 784, 785, 786, 787, 788, 789, 790, 791, 792, 793, 794, 795, 796, 797, 798, 799, 800, 801, 802, 803, 804, 805, 806, 807, 808, 809, 810, 811, 812, 813, 814, 815, 816, 817, 818, 819, 820, 821, 822, 823, 824, 825, 826, 827, 828, 829, 830, 831, 832, 833, 834, 835, 836, 837, 838, 839, 840, 841, 842, 843};
d_dfa = array2d(1..843, 1..3, [
  2, 1, 1,
  2, 3, 1,
  4, 1, 1,
  7, 6, 5,
  9, 8, 8,
  10, 8, 8,
  9, 11, 8,
  13, 12, 12,
  13, 14, 12,
  17, 16, 15,
  18, 12, 12,
  20, 19, 19,
  20, 21, 19,
  22, 19, 19,
  24, 23, 23,
  25, 23, 23,
  24, 26, 23,
  29, 28, 27,
  31, 30, 30,
  31, 32, 30,
  33, 30, 30,
  36, 35, 34,
  38, 37, 37,
  38, 39, 37,
  42, 41, 40,
  43, 37, 37,
  45, 44, 44,
  46, 44, 44,
  45, 47, 44,
  49, 48, 48,
  49, 50, 48,
  51, 48, 48,
  54, 53, 52,
  56, 55, 55,
  57, 55, 55,
  56, 58, 55,
  60, 59, 59,
  60, 61, 59,
  62, 59, 59,
  64, 63, 63,
  65, 63, 63,
  64, 66, 63,
  69, 68, 67,
  71, 70, 70,
  71, 72, 70,
  75, 74, 73,
  76, 70, 70,
  78, 77, 77,
  78, 79, 77,
  80, 77, 77,
  83, 82, 81,
  85, 84, 84,
  86, 84, 84,
  85, 87, 84,
  89, 88, 88,
  89, 90, 88,
  93, 92, 91,
  94, 88, 88,
  96, 95, 95,
  96, 97, 95,
  98, 95, 95,
  101, 100, 99,
  103, 102, 102,
  103, 104, 102,
  107, 106, 105,
  108, 102, 102,
  110, 109, 109,
  111, 109, 109,
  110, 112, 109,
  114, 113, 113,
  114, 115, 113,
  116, 113, 113,
  118, 117, 117,
  119, 117, 117,
  118, 120, 117,
  123, 122, 121,
  125, 124, 124,
  125, 126, 124,
  127, 124, 124,
  130, 129, 128,
  132, 131, 131,
  133, 131, 131,
  132, 134, 131,
  136, 135, 135,
  136, 137, 135,
  140, 139, 138,
  141, 135, 135,
  143, 142, 142,
  143, 144, 142,
  145, 142, 142,
  147, 146, 146,
  148, 146, 146,
  147, 149, 146,
  152, 151, 150,
  154, 153, 153,
  154, 155, 153,
  156, 153, 153,
  159, 158, 157,
  161, 160, 160,
  162, 160, 160,
  161, 163, 160,
  165, 164, 164,
  165, 166, 164,
  167, 164, 164,
  169, 168, 168,
  170, 168, 168,
  169, 171, 168,
  174, 173, 172,
  176, 175, 175,
  176, 177, 175,
  180, 179, 178,
  181, 175, 175,
  183, 182, 182,
  183, 184, 182,
  185, 182, 182,
  188, 187, 186,
  190, 189, 189,
  190, 191, 189,
  194, 193, 192,
  195, 189, 189,
  197, 196, 196,
  198, 196, 196,
  197, 199, 196,
  201, 200, 200,
  201, 202, 200,
  203, 200, 200,
  206, 205, 204,
  208, 207, 207,
  209, 207, 207,
  208, 210, 207,
  212, 211, 211,
  212, 213, 211,
  216, 215, 214,
  217, 211, 211,
  219, 218, 218,
  219, 220, 218,
  221, 218, 218,
  223, 222, 222,
  224, 222, 222,
  223, 225, 222,
  228, 227, 226,
  230, 229, 229,
  230, 231, 229,
  232, 229, 229,
  235, 234, 233,
  237, 236, 236,
  237, 238, 236,
  241, 240, 239,
  242, 236, 236,
  244, 243, 243,
  245, 243, 243,
  244, 246, 243,
  248, 247, 247,
  248, 249, 247,
  250, 247, 247,
  253, 252, 251,
  255, 254, 254,
  256, 254, 254,
  255, 257, 254,
  259, 258, 258,
  259, 260, 258,
  263, 262, 261,
  264, 258, 258,
  266, 265, 265,
  266, 267, 265,
  268, 265, 265,
  271, 270, 269,
  273, 272, 272,
  273, 274, 272,
  277, 276, 275,
  278, 272, 272,
  280, 279, 279,
  281, 279, 279,
  280, 282, 279,
  284, 283, 283,
  284, 285, 283,
  286, 283, 283,
  288, 287, 287,
  289, 287, 287,
  288, 290, 287,
  293, 292, 291,
  295, 294, 294,
  295, 296, 294,
  297, 294, 294,
  300, 299, 298,
  302, 301, 301,
  303, 301, 301,
  302, 304, 301,
  306, 305, 305,
  306, 307, 305,
  308, 305, 305,
  310, 309, 309,
  311, 309, 309,
  310, 312, 309,
  315, 314, 313,
  317, 316, 316,
  317, 318, 316,
  321, 320, 319,
  322, 316, 316,
  324, 323, 323,
  324, 325, 323,
  326, 323, 323,
  329, 328, 327,
  331, 330, 330,
  332, 330, 330,
  331, 333, 330,
  335, 334, 334,
  335, 336, 334,
  339, 338, 337,
  340, 334, 334,
  342, 341, 341,
  342, 343, 341,
  344, 341, 341,
  346, 345, 345,
  347, 345, 345,
  346, 348, 345,
  351, 350, 349,
  353, 352, 352,
  353, 354, 352,
  355, 352, 352,
  358, 357, 356,
  360, 359, 359,
  360, 361, 359,
  364, 363, 362,
  365, 359, 359,
  367, 366, 366,
  368, 366, 366,
  367, 369, 366,
  371, 370, 370,
  371, 372, 370,
  373, 370, 370,
  376, 375, 374,
  378, 377, 377,
  379, 377, 377,
  378, 380, 377,
  382, 381, 381,
  382, 383, 381,
  384, 381, 381,
  386, 385, 385,
  387, 385, 385,
  386, 388, 385,
  391, 390, 389,
  393, 392, 392,
  393, 394, 392,
  397, 396, 395,
  398, 392, 392,
  400, 399, 399,
  400, 401, 399,
  402, 399, 399,
  405, 404, 403,
  407, 406, 406,
  408, 406, 406,
  407, 409, 406,
  411, 410, 410,
  411, 412, 410,
  415, 414, 413,
  416, 410, 410,
  418, 417, 417,
  418, 419, 417,
  420, 417, 417,
  422, 421, 421,
  423, 421, 421,
  422, 424, 421,
  427, 426, 425,
  429, 428, 428,
  429, 430, 428,
  431, 428, 428,
  434, 433, 432,
  436, 435, 435,
  437, 435, 435,
  436, 438, 435,
  440, 439, 439,
  440, 441, 439,
  442, 439, 439,
  444, 443, 443,
  445, 443, 443,
  444, 446, 443,
  449, 448, 447,
  451, 450, 450,
  451, 452, 450,
  455, 454, 453,
  456, 450, 450,
  458, 457, 457,
  458, 459, 457,
  460, 457, 457,
  463, 462, 461,
  465, 464, 464,
  465, 466, 464,
  469, 468, 467,
  470, 464, 464,
  472, 471, 471,
  473, 471, 471,
  472, 474, 471,
  476, 475, 475,
  476, 477, 475,
  478, 475, 475,
  481, 480, 479,
  483, 482, 482,
  484, 482, 482,
  483, 485, 482,
  487, 486, 486,
  487, 488, 486,
  491, 490, 489,
  492, 486, 486,
  494, 493, 493,
  494, 495, 493,
  496, 493, 493,
  499, 498, 497,
  501, 500, 500,
  501, 502, 500,
  505, 504, 503,
  506, 500, 500,
  508, 507, 507,
  509, 507, 507,
  508, 510, 507,
  512, 511, 511,
  512, 513, 511,
  514, 511, 511,
  516, 515, 515,
  517, 515, 515,
  516, 518, 515,
  521, 520, 519,
  523, 522, 522,
  523, 524, 522,
  525, 522, 522,
  528, 527, 526,
  530, 529, 529,
  531, 529, 529,
  530, 532, 529,
  534, 533, 533,
  534, 535, 533,
  538, 537, 536,
  539, 533, 533,
  541, 540, 540,
  541, 542, 540,
  543, 540, 540,
  545, 544, 544,
  546, 544, 544,
  545, 547, 544,
  550, 549, 548,
  552, 551, 551,
  552, 553, 551,
  554, 551, 551,
  557, 556, 555,
  559, 558, 558,
  559, 560, 558,
  563, 562, 561,
  564, 558, 558,
  566, 565, 565,
  567, 565, 565,
  566, 568, 565,
  570, 569, 569,
  570, 571, 569,
  572, 569, 569,
  575, 574, 573,
  577, 576, 576,
  578, 576, 576,
  577, 579, 576,
  581, 580, 580,
  581, 582, 580,
  583, 580, 580,
  585, 584, 584,
  586, 584, 584,
  585, 587, 584,
  590, 589, 588,
  592, 591, 591,
  592, 593, 591,
  596, 595, 594,
  597, 591, 591,
  599, 598, 598,
  599, 600, 598,
  601, 598, 598,
  604, 603, 602,
  606, 605, 605,
  607, 605, 605,
  606, 608, 605,
  610, 609, 609,
  610, 611, 609,
  614, 613, 612,
  615, 609, 609,
  617, 616, 616,
  617, 618, 616,
  619, 616, 616,
  622, 621, 620,
  624, 623, 623,
  624, 625, 623,
  628, 627, 626,
  629, 623, 623,
  631, 630, 630,
  632, 630, 630,
  631, 633, 630,
  635, 634, 634,
  635, 636, 634,
  637, 634, 634,
  639, 638, 638,
  640, 638, 638,
  639, 641, 638,
  644, 643, 642,
  646, 645, 645,
  646, 647, 645,
  648, 645, 645,
  651, 650, 649,
  653, 652, 652,
  654, 652, 652,
  653, 655, 652,
  657, 656, 656,
  657, 658, 656,
  661, 660, 659,
  662, 656, 656,
  664, 663, 663,
  664, 665, 663,
  666, 663, 663,
  668, 667, 667,
  669, 667, 667,
  668, 670, 667,
  673, 672, 671,
  675, 674, 674,
  675, 676, 674,
  677, 674, 674,
  680, 679, 678,
  682, 681, 681,
  682, 683, 681,
  686, 685, 684,
  687, 681, 681,
  689, 688, 688,
  690, 688, 688,
  689, 691, 688,
  693, 692, 692,
  693, 694, 692,
  695, 692, 692,
  698, 697, 696,
  700, 699, 699,
  701, 699, 699,
  700, 702, 699,
  704, 703, 703,
  704, 705, 703,
  708, 707, 706,
  709, 703, 703,
  711, 710, 710,
  711, 712, 710,
  713, 710, 710,
  716, 715, 714,
  718, 717, 717,
  718, 719, 717,
  722, 721, 720,
  723, 717, 717,
  725, 724, 724,
  726, 724, 724,
  725, 727, 724,
  729, 728, 728,
  729, 730, 728,
  731, 728, 728,
  733, 732, 732,
  734, 732, 732,
  733, 735, 732,
  738, 737, 736,
  740, 739, 739,
  740, 741, 739,
  742, 739, 739,
  745, 744, 743,
  747, 746, 746,
  748, 746, 746,
  747, 749, 746,
  751, 750, 750,
  751, 752, 750,
  753, 750, 750,
  755, 754, 754,
  756, 754, 754,
  755, 757, 754,
  760, 759, 758,
  762, 761, 761,
  762, 763, 761,
  766, 765, 764,
  767, 761, 761,
  769, 768, 768,
  769, 770, 768,
  771, 768, 768,
  774, 773, 772,
  776, 775, 775,
  777, 775, 775,
  776, 778, 775,
  780, 779, 779,
  780, 781, 779,
  784, 783, 782,
  785, 779, 779,
  787, 786, 786,
  787, 788, 786,
  789, 786, 786,
  791, 790, 790,
  792, 790, 790,
  791, 793, 790,
  796, 795, 794,
  798, 797, 797,
  798, 799, 797,
  800, 797, 797,
  803, 802, 801,
  805, 804, 804,
  806, 804, 804,
  805, 807, 804,
  809, 808, 808,
  809, 810, 808,
  811, 808, 808,
  813, 812, 812,
  814, 812, 812,
  813, 815, 812,
  818, 817, 816,
  820, 819, 819,
  820, 821, 819,
  824, 823, 822,
  825, 819, 819,
  827, 826, 826,
  827, 828, 826,
  829, 826, 826,
  832, 831, 830,
  834, 833, 833,
  834, 835, 833,
  838, 837, 836,
  839, 833, 833,
  841, 840, 840,
  842, 840, 840,
  841, 843, 840,
  2, 1, 1,
  2, 3, 1,
  4, 1, 1,
  7, 6, 5,
  9, 8, 8,
  10, 8, 8,
  9, 11, 8,
  13, 12, 12,
  13, 14, 12,
  17, 16, 15,
  18, 12, 12,
  20, 19, 19,
  20, 21, 19,
  22, 19, 19,
  24, 23, 23,
  25, 23, 23,
  24, 26, 23,
  29, 28, 27,
  31, 30, 30,
  31, 32, 30,
  33, 30, 30,
  36, 35, 34,
  38, 37, 37,
  38, 39, 37,
  42, 41, 40,
  43, 37, 37,
  45, 44, 44,
  46, 44, 44,
  45, 47, 44,
  49, 48, 48,
  49, 50, 48,
  51, 48, 48,
  54, 53, 52,
  56, 55, 55,
  57, 55, 55,
  56, 58, 55,
  60, 59, 59,
  60, 61, 59,
  62, 59, 59,
  64, 63, 63,
  65, 63, 63,
  64, 66, 63,
  69, 68, 67,
  71, 70, 70,
  71, 72, 70,
  75, 74, 73,
  76, 70, 70,
  78, 77, 77,
  78, 79, 77,
  80, 77, 77,
  83, 82, 81,
  85, 84, 84,
  86, 84, 84,
  85, 87, 84,
  89, 88, 88,
  89, 90, 88,
  93, 92, 91,
  94, 88, 88,
  96, 95, 95,
  96, 97, 95,
  98, 95, 95,
  101, 100, 99,
  103, 102, 102,
  103, 104, 102,
  107, 106, 105,
  108, 102, 102,
  110, 109, 109,
  111, 109, 109,
  110, 112, 109,
  114, 113, 113,
  114, 115, 113,
  116, 113, 113,
  118, 117, 117,
  119, 117, 117,
  118, 120, 117,
  123, 122, 121,
  125, 124, 124,
  125, 126, 124,
  127, 124, 124,
  130, 129, 128,
  132, 131, 131,
  133, 131, 131,
  132, 134, 131,
  136, 135, 135,
  136, 137, 135,
  140, 139, 138,
  141, 135, 135,
  143, 142, 142,
  143, 144, 142,
  145, 142, 142,
  147, 146, 146,
  148, 146, 146,
  147, 149, 146,
  152, 151, 150,
  154, 153, 153,
  154, 155, 153,
  156, 153, 153,
  159, 158, 157,
  161, 160, 160,
  162, 160, 160,
  161, 163, 160,
  165, 164, 164,
  165, 166, 164,
  167, 164, 164,
  169, 168, 168,
  170, 168, 168,
  169, 171, 168,
  174, 173, 172,
  176, 175, 175,
  176, 177, 175,
  180, 179, 178,
  181, 175, 175,
  183, 182, 182,
  183, 184, 182,
  185, 182, 182,
  188, 187, 186,
  190, 189, 189,
  190, 191, 189,
  194, 193, 192,
  195, 189, 189,
  197, 196, 196,
  198, 196, 196,
  197, 199, 196,
  324, 323, 323,
  324, 325, 323,
  326, 323, 323,
  329, 328, 327,
  331, 330, 330,
  332, 330, 330,
  331, 333, 330,
  335, 334, 334,
  335, 336, 334,
  339, 338, 337,
  340, 334, 334,
  342, 341, 341,
  342, 343, 341,
  344, 341, 341,
  346, 345, 345,
  347, 345, 345,
  346, 348, 345,
  351, 350, 349,
  353, 352, 352,
  353, 354, 352,
  355, 352, 352,
  358, 357, 356,
  360, 359, 359,
  360, 361, 359,
  364, 363, 362,
  365, 359, 359,
  367, 366, 366,
  368, 366, 366,
  367, 369, 366,
  371, 370, 370,
  371, 372, 370,
  373, 370, 370,
  376, 375, 374,
  378, 377, 377,
  379, 377, 377,
  378, 380, 377,
  382, 381, 381,
  382, 383, 381,
  384, 381, 381,
  386, 385, 385,
  387, 385, 385,
  386, 388, 385,
  391, 390, 389,
  393, 392, 392,
  393, 394, 392,
  397, 396, 395,
  398, 392, 392,
  400, 399, 399,
  400, 401, 399,
  402, 399, 399,
  405, 404, 403,
  407, 406, 406,
  408, 406, 406,
  407, 409, 406,
  411, 410, 410,
  411, 412, 410,
  415, 414, 413,
  416, 410, 410,
  418, 417, 417,
  418, 419, 417,
  420, 417, 417,
  422, 421, 421,
  423, 421, 421,
  422, 424, 421,
  427, 426, 425,
  429, 428, 428,
  429, 430, 428,
  431, 428, 428,
  434, 433, 432,
  436, 435, 435,
  437, 435, 435,
  436, 438, 435,
  440, 439, 439,
  440, 441, 439,
  442, 439, 439,
  444, 443, 443,
  445, 443, 443,
  444, 446, 443,
  449, 448, 447,
  451, 450, 450,
  451, 452, 450,
  455, 454, 453,
  456, 450, 450,
  458, 457, 457,
  458, 459, 457,
  460, 457, 457,
  463, 462, 461,
  465, 464, 464,
  465, 466, 464,
  469, 468, 467,
  470, 464, 464,
  472, 471, 471,
  473, 471, 471,
  472, 474, 471,
  476, 475, 475,
  476, 477, 475,
  478, 475, 475,
  481, 480, 479,
  483, 482, 482,
  484, 482, 482,
  483, 485, 482,
  487, 486, 486,
  487, 488, 486,
  491, 490, 489,
  492, 486, 486,
  494, 493, 493,
  494, 495, 493,
  496, 493, 493,
  499, 498, 497,
  501, 500, 500,
  501, 502, 500,
  505, 504, 503,
  506, 500, 500,
  508, 507, 507,
  509, 507, 507,
  508, 510, 507,
  512, 511, 511,
  512, 513, 511,
  514, 511, 511,
  516, 515, 515,
  517, 515, 515,
  516, 518, 515,
  521, 520, 519,
  201, 200, 200,
  201, 202, 200,
  203, 200, 200,
  206, 205, 204,
  208, 207, 207,
  209, 207, 207,
  208, 210, 207,
  212, 211, 211,
  212, 213, 211,
  216, 215, 214,
  217, 211, 211,
  219, 218, 218,
  219, 220, 218,
  221, 218, 218,
  223, 222, 222,
  224, 222, 222,
  223, 225, 222,
  228, 227, 226,
  230, 229, 229,
  230, 231, 229,
  232, 229, 229,
  235, 234, 233,
  237, 236, 236,
  237, 238, 236,
  241, 240, 239,
  242, 236, 236,
  244, 243, 243,
  245, 243, 243,
  244, 246, 243,
  248, 247, 247,
  248, 249, 247,
  250, 247, 247,
  253, 252, 251,
  255, 254, 254,
  256, 254, 254,
  255, 257, 254,
  259, 258, 258,
  259, 260, 258,
  263, 262, 261,
  264, 258, 258,
  266, 265, 265,
  266, 267, 265,
  268, 265, 265,
  271, 270, 269,
  273, 272, 272,
  273, 274, 272,
  277, 276, 275,
  278, 272, 272,
  280, 279, 279,
  281, 279, 279,
  280, 282, 279,
  284, 283, 283,
  284, 285, 283,
  286, 283, 283,
  288, 287, 287,
  289, 287, 287,
  288, 290, 287,
  293, 292, 291,
  295, 294, 294,
  295, 296, 294,
  297, 294, 294,
  300, 299, 298,
  302, 301, 301,
  303, 301, 301,
  302, 304, 301,
  306, 305, 305,
  306, 307, 305,
  308, 305, 305,
  310, 309, 309,
  311, 309, 309,
  310, 312, 309,
  315, 314, 313,
  317, 316, 316,
  317, 318, 316,
  321, 320, 319,
  322, 316, 316
]);
d_nfa = array2d(1..843, 1..3, [
  {}, {}, {},
  {}, {}, {},
  {}, {}, {},
  {}, {}, {},
  {}, {}, {},
  {}, {}, {},
  {}, {}, {},
  {}, {}, {},
  {}, {}, {},
  {}, {}, {},
  {}, {}, {},
  {}, {}, {},
  {}, {}, {},
  {}, {}, {},
  {}, {}, {},
  {}, {}, {},
  {}, {}, {},
  {}, {}, {},
  {}, {}, {},
  {}, {}, {},
  {}, {}, {},
  {}, {}, {},
  {}, {}, {},
  {}, {}, {},
  {}, {}, {},
  {}, {}, {},
  {}, {}, {},
  {}, {}, {},
  {}, {}, {},
  {}, {}, {},
  {}, {}, {},
  {}, {}, {},
  {}, {}, {},
  {}, {}, {},
  {}, {}, {},
  {}, {}, {},
  {}, {}, {},
  {}, {}, {},
  {}, {}, {},
  {}, {}, {},
  {}, {}, {},
  {}, {}, {},
  {}, {}, {},
  {}, {}, {},
  {}, {}, {},
  {}, {}, {},
  {}, {}, {},
  {}, {}, {},
  {}, {}, {},
  {}, {}, {},
  {}, {}, {},
  {}, {}, {},
  {}, {}, {},
  {}, {}, {},
  {}, {}, {},
  {}, {}, {},
  {}, {}, {},
  {}, {}, {},
  {}, {}, {},
  {}, {}, {},
  {}, {}, {},
  {}, {}, {},
  {}, {}, {},
  {}, {}, {},
  {}, {}, {},
  {}, {}, {},
  {}, {}, {},
  {}, {}, {},
  {}, {}, {},
  {}, {}, {},
  {}, {}, {},
  {}, {}, {},
  {}, {}, {},
  {}, {}, {},
  {}, {}, {},
  {}, {}, {},
  {}, {}, {},
  {}, {}, {},
  {}, {}, {},
  {}, {}, {},
  {}, {}, {},
  {}, {}, {},
  {}, {}, {},
  {}, {}, {},
  {}, {}, {},
  {}, {}, {},
  {}, {}, {},
  {}, {}, {},
  {}, {}, {},
  {}, {}, {},
  {}, {}, {},
  {}, {}, {},
  {}, {}, {},
  {}, {}, {},
  {}, {}, {},
  {}, {}, {},
  {}, {}, {},
  {}, {}, {},
  {}, {}, {},
  {}, {}, {},
  {}, {}, {},
  {}, {}, {},
  {}, {}, {},
  {}, {}, {},
  {}, {}, {},
  {}, {}, {},
  {}, {}, {},
  {}, {}, {},
  {}, {}, {},
  {}, {}, {},
  {}, {}, {},
  {}, {}, {},
  {}, {}, {},
  {}, {}, {},
  {}, {}, {},
  {}, {}, {},
  {}, {}, {},
  {}, {}, {},
  {}, {}, {},
  {}, {}, {},
  {}, {}, {},
  {}, {}, {},
  {}, {}, {},
  {}, {}, {},
  {}, {}, {},
  {}, {}, {},
  {}, {}, {},
  {}, {}, {},
  {}, {}, {},
  {}, {}, {},
  {}, {}, {},
  {}, {}, {},
  {}, {}, {},
  {}, {}, {},
  {}, {}, {},
  {}, {}, {},
  {}, {}, {},
  {}, {}, {},
  {}, {}, {},
  {}, {}, {},
  {}, {}, {},
  {}, {}, {},
  {}, {}, {},
  {}, {}, {},
  {}, {}, {},
  {}, {}, {},
  {}, {}, {},
  {}, {}, {},
  {}, {}, {},
  {}, {}, {},
  {}, {}, {},
  {}, {}, {},
  {}, {}, {},
  {}, {}, {},
  {}, {}, {},
  {}, {}, {},
  {}, {}, {},
  {}, {}, {},
  {}, {}, {},
  {}, {}, {},
  {}, {}, {},
  {}, {}, {},
  {}, {}, {},
  {}, {}, {},
  {}, {}, {},
  {}, {}, {},
  {}, {}, {},
  {}, {}, {},
  {}, {}, {},
  {}, {}, {},
  {}, {}, {},
  {}, {}, {},
  {}, {}, {},
  {}, {}, {},
  {}, {}, {},
  {}, {}, {},
  {}, {}, {},
  {}, {}, {},
  {}, {}, {},
  {}, {}, {},
  {}, {}, {},
  {}, {}, {},
  {}, {}, {},
  {}, {}, {},
  {}, {}, {},
  {}, {}, {},
  {}, {}, {},
  {}, {}, {},
  {}, {}, {},
  {}, {}, {},
  {}, {}, {},
  {}, {}, {},
  {}, {}, {},
  {}, {}, {},
  {}, {}, {},
  {}, {}, {},
  {}, {}, {},
  {}, {}, {},
  {}, {}, {},
  {}, {}, {},
  {}, {}, {},
  {}, {}, {},
  {}, {}, {},
  {}, {}, {},
  {}, {}, {},
  {}, {}, {},
  {}, {}, {},
  {}, {}, {},
  {}, {}, {},
  {}, {}, {},
  {}, {}, {},
  {}, {}, {},
  {}, {}, {},
  {}, {}, {},
  {}, {}, {},
  {}, {}, {},
  {}, {}, {},
  {}, {}, {},
  {}, {}, {},
  {}, {}, {},
  {}, {}, {},
  {}, {}, {},
  {}, {}, {},
  {}, {}, {},
  {}, {}, {},
  {}, {}, {},
  {}, {}, {},
  {}, {}, {},
  {}, {}, {},
  {}, {}, {},
  {}, {}, {},
  {}, {}, {},
  {}, {}, {},
  {}, {}, {},
  {}, {}, {},
  {}, {}, {},
  {}, {}, {},
  {}, {}, {},
  {}, {}, {},
  {}, {}, {},
  {}, {}, {},
  {}, {}, {},
  {}, {}, {},
  {}, {}, {},
  {}, {}, {},
  {}, {}, {},
  {}, {}, {},
  {}, {}, {},
  {}, {}, {},
  {}, {}, {},
  {}, {}, {},
  {}, {}, {},
  {}, {}, {},
  {}, {}, {},
  {}, {}, {},
  {}, {}, {},
  {}, {}, {},
  {}, {}, {},
  {}, {}, {},
  {}, {}, {},
  {}, {}, {},
  {}, {}, {},
  {}, {}, {},
  {}, {}, {},
  {}, {}, {},
  {}, {}, {},
  {}, {}, {},
  {}, {}, {},
  {}, {}, {},
  {}, {}, {},
  {}, {}, {},
  {}, {}, {},
  {}, {}, {},
  {}, {}, {},
  {}, {}, {},
  {}, {}, {},
  {}, {}, {},
  {}, {}, {},
  {}, {}, {},
  {}, {}, {},
  {}, {}, {},
  {}, {}, {},
  {}, {}, {},
  {}, {}, {},
  {}, {}, {},
  {}, {}, {},
  {}, {}, {},
  {}, {}, {},
  {}, {}, {},
  {}, {}, {},
  {}, {}, {},
  {}, {}, {},
  {}, {}, {},
  {}, {}, {},
  {}, {}, {},
  {}, {}, {},
  {}, {}, {},
  {}, {}, {},
  {}, {}, {},
  {}, {}, {},
  {}, {}, {},
  {}, {}, {},
  {}, {}, {},
  {}, {}, {},
  {}, {}, {},
  {}, {}, {},
  {}, {}, {},
  {}, {}, {},
  {}, {}, {},
  {}, {}, {},
  {}, {}, {},
  {}, {}, {},
  {}, {}, {},
  {}, {}, {},
  {}, {}, {},
  {}, {}, {},
  {}, {}, {},
  {}, {}, {},
  {}, {}, {},
  {}, {}, {},
  {}, {}, {},
  {}, {}, {},
  {}, {}, {},
  {}, {}, {},
  {}, {}, {},
  {}, {}, {},
  {}, {}, {},
  {}, {}, {},
  {}, {}, {},
  {}, {}, {},
  {}, {}, {},
  {}, {}, {},
  {}, {}, {},
  {}, {}, {},
  {}, {}, {},
  {}, {}, {},
  {}, {}, {},
  {}, {}, {},
  {}, {}, {},
  {}, {}, {},
  {}, {}, {},
  {}, {}, {},
  {}, {}, {},
  {}, {}, {},
  {}, {}, {},
  {}, {}, {},
  {}, {}, {},
  {}, {}, {},
  {}, {}, {},
  {}, {}, {},
  {}, {}, {},
  {}, {}, {},
  {}, {}, {},
  {}, {}, {},
  {}, {}, {},
  {}, {}, {},
  {}, {}, {},
  {}, {}, {},
  {}, {}, {},
  {}, {}, {},
  {}, {}, {},
  {}, {}, {},
  {}, {}, {},
  {}, {}, {},
  {}, {}, {},
  {}, {}, {},
  {}, {}, {},
  {}, {}, {},
  {}, {}, {},
  {}, {}, {},
  {}, {}, {},
  {}, {}, {},
  {}, {}, {},
  {}, {}, {},
  {}, {}, {},
  {}, {}, {},
  {}, {}, {},
  {}, {}, {},
  {}, {}, {},
  {}, {}, {},
  {}, {}, {},
  {}, {}, {},
  {}, {}, {},
  {}, {}, {},
  {}, {}, {},
  {}, {}, {},
  {}, {}, {},
  {}, {}, {},
  {}, {}, {},
  {}, {}, {},
  {}, {}, {},
  {}, {}, {},
  {}, {}, {},
  {}, {}, {},
  {}, {}, {},
  {}, {}, {},
  {}, {}, {},
  {}, {}, {},
  {}, {}, {},
  {}, {}, {},
  {}, {}, {},
  {}, {}, {},
  {}, {}, {},
  {}, {}, {},
  {}, {}, {},
  {}, {}, {},
  {}, {}, {},
  {}, {}, {},
  {}, {}, {},
  {}, {}, {},
  {}, {}, {},
  {}, {}, {},
  {}, {}, {},
  {}, {}, {},
  {}, {}, {},
  {}, {}, {},
  {}, {}, {},
  {}, {}, {},
  {}, {}, {},
  {}, {}, {},
  {}, {}, {},
  {}, {}, {},
  {}, {}, {},
  {}, {}, {},
  {}, {}, {},
  {}, {}, {},
  {}, {}, {},
  {}, {}, {},
  {}, {}, {},
  {}, {}, {},
  {}, {}, {},
  {}, {}, {},
  {}, {}, {},
  {}, {}, {},
  {}, {}, {},
  {}, {}, {},
  {}, {}, {},
  {}, {}, {},
  {}, {}, {},
  {}, {}, {},
  {}, {}, {},
  {}, {}, {},
  {}, {}, {},
  {}, {}, {},
  {}, {}, {},
  {}, {}, {},
  {}, {}, {},
  {}, {}, {},
  {}, {}, {},
  {}, {}, {},
  {}, {}, {},
  {}, {}, {},
  {}, {}, {},
  {}, {}, {},
  {}, {}, {},
  {}, {}, {},
  {}, {}, {},
  {}, {}, {},
  {}, {}, {},
  {}, {}, {},
  {}, {}, {},
  {}, {}, {},
  {}, {}, {},
  {}, {}, {},
  {}, {}, {},
  {}, {}, {},
  {}, {}, {},
  {}, {}, {},
  {}, {}, {},
  {}, {}, {},
  {}, {}, {},
  {}, {}, {},
  {}, {}, {},
  {}, {}, {},
  {}, {}, {},
  {}, {}, {},
  {}, {}, {},
  {}, {}, {},
  {}, {}, {},
  {}, {}, {},
  {}, {}, {},
  {}, {}, {},
  {}, {}, {},
  {}, {}, {},
  {}, {}, {},
  {}, {}, {},
  {}, {}, {},
  {}, {}, {},
  {}, {}, {},
  {}, {}, {},
  {}, {}, {},
  {}, {}, {},
  {}, {}, {},
  {}, {}, {},
  {}, {}, {},
  {}, {}, {},
  {}, {}, {},
  {}, {}, {},
  {}, {}, {},
  {}, {}, {},
  {}, {}, {},
  {}, {}, {},
  {}, {}, {},
  {}, {}, {},
  {}, {}, {},
  {}, {}, {},
  {}, {}, {},
  {}, {}, {},
  {}, {}, {},
  {}, {}, {},
  {}, {}, {},
  {}, {}, {},
  {}, {}, {},
  {}, {}, {},
  {}, {}, {},
  {}, {}, {},
  {}, {}, {},
  {}, {}, {},
  {}, {}, {},
  {}, {}, {},
  {}, {}, {},
  {}, {}, {},
  {}, {}, {},
  {}, {}, {},
  {}, {}, {},
  {}, {}, {},
  {}, {}, {},
  {}, {}, {},
  {}, {}, {},
  {}, {}, {},
  {}, {}, {},
  {}, {}, {},
  {}, {}, {},
  {}, {}, {},
  {}, {}, {},
  {}, {}, {},
  {}, {}, {},
  {}, {}, {},
  {}, {}, {},
  {}, {}, {},
  {}, {}, {},
  {}, {}, {},
  {}, {}, {},
  {}, {}, {},
  {}, {}, {},
  {}, {}, {},
  {}, {}, {},
  {}, {}, {},
  {}, {}, {},
  {}, {}, {},
  {}, {}, {},
  {}, {}, {},
  {}, {}, {},
  {}, {}, {},
  {}, {}, {},
  {}, {}, {},
  {}, {}, {},
  {}, {}, {},
  {}, {}, {},
  {}, {}, {},
  {}, {}, {},
  {}, {}, {},
  {}, {}, {},
  {}, {}, {},
  {}, {}, {},
  {}, {}, {},
  {}, {}, {},
  {}, {}, {},
  {}, {}, {},
  {}, {}, {},
  {}, {}, {},
  {}, {}, {},
  {}, {}, {},
  {}, {}, {},
  {}, {}, {},
  {}, {}, {},
  {}, {}, {},
  {}, {}, {},
  {}, {}, {},
  {}, {}, {},
  {}, {}, {},
  {}, {}, {},
  {}, {}, {},
  {}, {}, {},
  {}, {}, {},
  {}, {}, {},
  {}, {}, {},
  {}, {}, {},
  {}, {}, {},
  {}, {}, {},
  {}, {}, {},
  {}, {}, {},
  {}, {}, {},
  {}, {}, {},
  {}, {}, {},
  {}, {}, {},
  {}, {}, {},
  {}, {}, {},
  {}, {}, {},
  {}, {}, {},
  {}, {}, {},
  {}, {}, {},
  {}, {}, {},
  {}, {}, {},
  {}, {}, {},
  {}, {}, {},
  {}, {}, {},
  {}, {}, {},
  {}, {}, {},
  {}, {}, {},
  {}, {}, {},
  {}, {}, {},
  {}, {}, {},
  {}, {}, {},
  {}, {}, {},
  {}, {}, {},
  {}, {}, {},
  {}, {}, {},
  {}, {}, {},
  {}, {}, {},
  {}, {}, {},
  {}, {}, {},
  {}, {}, {},
  {}, {}, {},
  {}, {}, {},
  {}, {}, {},
  {}, {}, {},
  {}, {}, {},
  {}, {}, {},
  {}, {}, {},
  {}, {}, {},
  {}, {}, {},
  {}, {}, {},
  {}, {}, {},
  {}, {}, {},
  {}, {}, {},
  {}, {}, {},
  {}, {}, {},
  {}, {}, {},
  {}, {}, {},
  {}, {}, {},
  {}, {}, {},
  {}, {}, {},
  {}, {}, {},
  {}, {}, {},
  {}, {}, {},
  {}, {}, {},
  {}, {}, {},
  {}, {}, {},
  {}, {}, {},
  {}, {}, {},
  {}, {}, {},
  {}, {}, {},
  {}, {}, {},
  {}, {}, {},
  {}, {}, {},
  {}, {}, {},
  {}, {}, {},
  {}, {}, {},
  {}, {}, {},
  {}, {}, {},
  {}, {}, {},
  {}, {}, {},
  {}, {}, {},
  {}, {}, {},
  {}, {}, {},
  {}, {}, {},
  {}, {}, {},
  {}, {}, {},
  {}, {}, {},
  {}, {}, {},
  {}, {}, {},
  {}, {}, {},
  {}, {}, {},
  {}, {}, {},
  {}, {}, {},
  {}, {}, {},
  {}, {}, {},
  {}, {}, {},
  {}, {}, {},
  {}, {}, {},
  {}, {}, {},
  {}, {}, {},
  {}, {}, {},
  {}, {}, {},
  {}, {}, {},
  {}, {}, {},
  {}, {}, {},
  {}, {}, {},
  {}, {}, {},
  {}, {}, {},
  {}, {}, {},
  {}, {}, {},
  {}, {}, {},
  {}, {}, {},
  {}, {}, {},
  {}, {}, {},
  {}, {}, {},
  {}, {}, {},
  {}, {}, {},
  {}, {}, {},
  {}, {}, {},
  {}, {}, {},
  {}, {}, {},
  {}, {}, {},
  {}, {}, {},
  {}, {}, {},
  {}, {}, {},
  {}, {}, {},
  {}, {}, {},
  {}, {}, {},
  {}, {}, {},
  {}, {}, {},
  {}, {}, {},
  {}, {}, {},
  {}, {}, {},
  {}, {}, {},
  {}, {}, {},
  {}, {}, {},
  {}, {}, {},
  {}, {}, {},
  {}, {}, {},
  {}, {}, {},
  {}, {}, {},
  {}, {}, {},
  {}, {}, {},
  {}, {}, {},
  {}, {}, {},
  {}, {}, {},
  {}, {}, {},
  {}, {}, {},
  {}, {}, {},
  {}, {}, {},
  {}, {}, {},
  {}, {}, {},
  {}, {}, {},
  {}, {}, {},
  {}, {}, {},
  {}, {}, {},
  {}, {}, {},
  {}, {}, {},
  {}, {}, {},
  {}, {}, {},
  {}, {}, {},
  {}, {}, {},
  {}, {}, {},
  {}, {}, {},
  {}, {}, {},
  {}, {}, {},
  {}, {}, {},
  {}, {}, {},
  {}, {}, {},
  {}, {}, {},
  {}, {}, {},
  {}, {}, {},
  {}, {}, {},
  {}, {}, {},
  {}, {}, {},
  {}, {}, {},
  {}, {}, {},
  {}, {}, {},
  {}, {}, {},
  {}, {}, {},
  {}, {}, {},
  {}, {}, {},
  {}, {}, {},
  {}, {}, {},
  {}, {}, {},
  {}, {}, {},
  {}, {}, {},
  {}, {}, {},
  {}, {}, {},
  {}, {}, {},
  {}, {}, {},
  {}, {}, {},
  {}, {}, {},
  {}, {}, {},
  {}, {}, {},
  {}, {}, {},
  {}, {}, {},
  {}, {}, {},
  {}, {}, {},
  {}, {}, {},
  {}, {}, {},
  {}, {}, {},
  {}, {}, {},
  {}, {}, {},
  {}, {}, {},
  {}, {}, {},
  {}, {}, {},
  {}, {}, {},
  {}, {}, {},
  {}, {}, {},
  {}, {}, {},
  {}, {}, {},
  {}, {}, {},
  {}, {}, {},
  {}, {}, {},
  {}, {}, {},
  {}, {}, {},
  {}, {}, {},
  {}, {}, {},
  {}, {}, {},
  {}, {}, {},
  {}, {}, {},
  {}, {}, {},
  {}, {}, {},
  {}, {}, {},
  {}, {}, {},
  {}, {}, {},
  {}, {}, {},
  {}, {}, {},
  {}, {}, {},
  {}, {}, {},
  {}, {}, {},
  {}, {}, {},
  {}, {}, {},
  {}, {}, {},
  {}, {}, {},
  {}, {}, {},
  {}, {}, {},
  {}, {}, {},
  {}, {}, {},
  {}, {}, {},
  {}, {}, {},
  {}, {}, {},
  {}, {}, {},
  {}, {}, {},
  {}, {}, {},
  {}, {}, {},
  {}, {}, {},
  {}, {}, {},
  {}, {}, {},
  {}, {}, {},
  {}, {}, {},
  {}, {}, {},
  {}, {}, {},
  {}, {}, {},
  {}, {}, {},
  {}, {}, {},
  {}, {}, {},
  {}, {}, {},
  {}, {}, {}
]);
